53, 491
398, 58
502, 35
393, 73
232, 11
90, 34
70, 82
401, 39
60, 72
54, 54
120, 98
179, 21
442, 30
172, 8
84, 87
318, 82
547, 72
238, 99
250, 21
268, 12
111, 82
354, 57
281, 9
518, 6
264, 17
93, 40
228, 39
73, 74
481, 78
515, 7
473, 1
471, 14
103, 45
509, 75
334, 61
269, 38
271, 25
140, 63
452, 35
537, 63
441, 18
252, 30
518, 98
355, 8
347, 15
184, 56
182, 68
118, 47
158, 14
251, 73
220, 89
429, 4
339, 23
541, 44